c status 36 1469387896942
c status 28 1469387896945
c status 27 1469387896947
c status 26 1469387896951
c status 25 1469387896957
c status 24 1469387896984
c status 23 1469387897076
s td 86 23 112
b 1 87 51 86 88
b 2 52 51 53 42
b 3 51 50 53 86 88 42
b 4 49 50 6 48
b 5 50 36 6 53 86 48 88 42
b 6 47 36 35 58
b 7 36 25 6 53 35 58 86 48 88 42
b 8 25 2 6 53 35 95 58 86 48 88 42
b 9 2 6 53 35 95 58 86 48 88 42 103 1
b 10 4 5 104 112
b 11 5 59 104 6 112
b 12 59 60 104 6 57 112
b 13 60 104 37 6 57 112 61
b 14 105 106 104 86
b 15 106 39 104 107 86
b 16 39 38 104 107 86 40
b 17 38 104 37 107 72 86 40
b 18 104 37 6 107 57 72 112 86 61 40 103
b 19 37 6 107 57 35 72 112 86 61 40 103
b 20 6 107 53 57 35 72 112 95 58 86 61 48 88 40 42 103 7 1
b 21 33 34 67 32
b 22 34 18 67 35 32
b 23 18 19 67 35 32 17
b 24 19 67 20 35 32 88 17
b 25 71 70 72 48
b 26 70 68 72 97 48
b 27 68 111 67 72 97 48
b 28 111 110 67 72 112 97 48
b 29 108 109 107 76
b 30 109 110 107 76 58
b 31 110 54 67 107 72 112 97 76 58 48
b 32 54 55 67 107 53 72 112 97 76 58 48
b 33 55 56 67 107 53 72 112 97 76 58 48 1
b 34 56 67 20 107 53 57 72 112 97 76 58 48 1
b 35 21 64 20 22
b 36 64 65 20 22 63
b 37 65 66 20 22 63 7
b 38 66 41 67 20 22 63 7
b 39 41 67 20 22 63 40 42 7
b 40 67 20 107 53 57 35 72 112 97 76 58 22 32 63 48 88 40 42 7 17 1
b 41 77 78 76 32
b 42 78 79 57 76 32
b 43 79 96 57 81 76 32
b 44 96 57 97 95 81 76 32
b 45 107 53 57 35 72 112 97 95 76 58 86 22 32 63 61 48 88 40 42 103 7 17 1
b 46 53 57 35 72 112 97 95 76 58 86 22 32 63 61 48 88 40 42 10 103 7 17 1
b 47 57 35 72 112 97 95 81 76 58 86 22 32 63 61 48 88 40 42 10 103 7 17 1
b 48 16 83 15 1
b 49 62 85 63 61
b 50 85 84 86 63 61
b 51 84 83 45 86 63 61
b 52 83 82 15 45 86 63 61 1
b 53 82 8 15 45 81 86 63 61 1
b 54 8 9 15 45 81 86 63 61 7 1
b 55 9 15 45 81 86 63 61 10 7 17 1
b 56 102 3 91 30
b 57 93 94 92 61
b 58 94 14 92 95 61
b 59 14 3 92 95 61 17
b 60 3 46 91 92 30 95 61 17
b 61 46 91 92 30 45 95 61 48 17
b 62 75 92 74 76
b 63 69 80 99 58
b 64 80 89 91 99 58
b 65 89 90 91 99 58 88
b 66 90 91 92 99 15 58 88
b 67 91 92 99 30 15 45 95 58 61 48 88 40 17
b 68 92 99 30 74 15 45 95 76 58 61 48 88 40 17
b 69 98 11 99 97
b 70 11 12 99 97 10
b 71 31 12 30 32
b 72 12 13 99 30 97 32 10
b 73 13 23 99 30 15 97 32 10
b 74 23 24 99 30 15 97 22 32 10
b 75 29 28 30 63
b 76 73 28 74 72
b 77 28 27 30 74 72 63
b 78 27 26 30 74 72 81 63
b 79 26 24 30 74 72 112 81 63
b 80 24 43 99 30 74 15 72 112 97 81 22 32 63 10
b 81 43 44 99 30 74 15 72 112 97 81 22 32 63 42 10
b 82 44 100 99 30 74 15 45 72 112 97 81 22 32 63 42 10
b 83 100 101 99 30 74 15 45 72 112 97 81 22 32 63 42 10
b 84 101 99 30 74 15 45 72 112 97 81 22 32 63 42 10 103
b 85 99 30 74 15 45 72 112 97 95 81 76 58 22 32 63 61 48 88 40 42 10 103 17
b 86 15 45 72 112 97 95 81 76 58 86 22 32 63 61 48 88 40 42 10 103 7 17 1
1 3
3 5
5 7
7 8
8 9
9 20
20 45
45 46
46 47
47 86
86 85
45 40
85 84
84 83
83 82
82 81
85 68
81 80
40 34
68 67
34 33
33 32
86 55
20 19
19 18
55 54
32 31
54 53
80 74
67 61
53 52
74 73
61 60
80 79
40 39
31 28
18 13
18 17
73 72
79 78
39 38
47 44
40 24
67 66
52 51
60 59
28 27
13 12
17 16
78 77
38 37
44 43
24 23
66 65
31 30
59 58
72 70
51 50
27 26
12 11
16 15
37 36
43 42
23 22
65 64
52 48
30 29
3 2
7 6
72 71
58 57
77 75
77 76
70 69
50 49
26 25
11 10
15 14
36 35
42 41
22 21
64 63
60 56
68 62
5 4
